NAME          
ROWS
 N  OBJ
 L  c1
COLUMNS
    MARKER    'MARKER'                 'INTORG'
    x[1]      c1        86
    x[1]      OBJ       -544
    x[2]      c1        351
    x[2]      OBJ       -992
    x[3]      c1        743
    x[3]      OBJ       -465
    x[4]      c1        903
    x[4]      OBJ       -112
    x[5]      c1        731
    x[5]      OBJ       -401
    x[6]      c1        595
    x[6]      OBJ       -409
    x[7]      c1        390
    x[7]      OBJ       -385
    x[8]      c1        365
    x[8]      OBJ       -833
    x[9]      c1        371
    x[9]      OBJ       -394
    x[10]     c1        854
    x[10]     OBJ       -912
    x[11]     c1        913
    x[11]     OBJ       -82
    x[12]     c1        857
    x[12]     OBJ       -97
    x[13]     c1        398
    x[13]     OBJ       -580
    x[14]     c1        447
    x[14]     OBJ       -45
    x[15]     c1        456
    x[15]     OBJ       -867
    x[16]     c1        282
    x[16]     OBJ       -54
    x[17]     c1        91
    x[17]     OBJ       -776
    x[18]     c1        982
    x[18]     OBJ       -11
    x[19]     c1        144
    x[19]     OBJ       -983
    x[20]     c1        136
    x[20]     OBJ       -469
    x[21]     c1        103
    x[21]     OBJ       -122
    x[22]     c1        948
    x[22]     OBJ       -259
    x[23]     c1        512
    x[23]     OBJ       -834
    x[24]     c1        938
    x[24]     OBJ       -290
    x[25]     c1        773
    x[25]     OBJ       -981
    x[26]     c1        161
    x[26]     OBJ       -513
    x[27]     c1        417
    x[27]     OBJ       -562
    x[28]     c1        804
    x[28]     OBJ       -482
    x[29]     c1        438
    x[29]     OBJ       -46
    x[30]     c1        164
    x[30]     OBJ       -737
RHS
    rhs       c1        7676
RANGES
BOUNDS
 BV bounds    x[1]
 BV bounds    x[2]
 BV bounds    x[3]
 BV bounds    x[4]
 BV bounds    x[5]
 BV bounds    x[6]
 BV bounds    x[7]
 BV bounds    x[8]
 BV bounds    x[9]
 BV bounds    x[10]
 BV bounds    x[11]
 BV bounds    x[12]
 BV bounds    x[13]
 BV bounds    x[14]
 BV bounds    x[15]
 BV bounds    x[16]
 BV bounds    x[17]
 BV bounds    x[18]
 BV bounds    x[19]
 BV bounds    x[20]
 BV bounds    x[21]
 BV bounds    x[22]
 BV bounds    x[23]
 BV bounds    x[24]
 BV bounds    x[25]
 BV bounds    x[26]
 BV bounds    x[27]
 BV bounds    x[28]
 BV bounds    x[29]
 BV bounds    x[30]
ENDATA
